benchmark/results/graph__15-1000-0.10-04_2/graph__15-1000-0.10-04_2_Quinton_Benders_primal_sub.lp
\ This file has been generated by DOcplex
\ ENCODING=ISO-8859-1
\Problem name: Quinton Benders_primal_sub

Maximize
 obj: tau
Subject To
 c1: tau <= 0.001142857143
 c2: y_a0_proc_0 + y_a0_proc_1 + y_a0_proc_2 + y_a0_proc_3 - tau = 0
 c3: y_a0_proc_0 <= 1
 c4: y_a0_proc_1 <= 0
 c5: y_a0_proc_2 <= 0
 c6: y_a0_proc_3 <= 0
 c7: tau <= 0.001536098310
 c8: y_a1_proc_1 - tau = 0
 c9: y_a1_proc_1 <= 1
 c10: tau <= 0.001095290252
 c11: y_a2_proc_0 + y_a2_proc_1 + y_a2_proc_2 + y_a2_proc_3 - tau = 0
 c12: y_a2_proc_0 <= 0
 c13: y_a2_proc_1 <= 0
 c14: y_a2_proc_2 <= 0
 c15: y_a2_proc_3 <= 1
 c16: tau <= 0.001291989664
 c17: y_a3_proc_1 + y_a3_proc_2 + y_a3_proc_3 - tau = 0
 c18: y_a3_proc_1 <= 0
 c19: y_a3_proc_2 <= 1
 c20: y_a3_proc_3 <= 0
 c21: tau <= 0.001033057851
 c22: y_a4_proc_1 + y_a4_proc_2 + y_a4_proc_3 - tau = 0
 c23: y_a4_proc_1 <= 0
 c24: y_a4_proc_2 <= 0
 c25: y_a4_proc_3 <= 1
 c26: tau <= 0.001233045623
 c27: y_a5_proc_0 + y_a5_proc_1 + y_a5_proc_2 + y_a5_proc_3 - tau = 0
 c28: y_a5_proc_0 <= 1
 c29: y_a5_proc_1 <= 0
 c30: y_a5_proc_2 <= 0
 c31: y_a5_proc_3 <= 0
 c32: tau <= 0.001331557923
 c33: y_a6_proc_1 + y_a6_proc_2 + y_a6_proc_3 - tau = 0
 c34: y_a6_proc_1 <= 0
 c35: y_a6_proc_2 <= 1
 c36: y_a6_proc_3 <= 0
 c37: tau <= 0.001792114695
 c38: y_a7_proc_1 + y_a7_proc_2 + y_a7_proc_3 - tau = 0
 c39: y_a7_proc_1 <= 0
 c40: y_a7_proc_2 <= 1
 c41: y_a7_proc_3 <= 0
 c42: tau <= 0.001027749229
 c43: y_a8_proc_1 + y_a8_proc_2 + y_a8_proc_3 - tau = 0
 c44: y_a8_proc_1 <= 1
 c45: y_a8_proc_2 <= 0
 c46: y_a8_proc_3 <= 0
 c47: tau <= 0.001692047377
 c48: y_a9_proc_0 + y_a9_proc_1 + y_a9_proc_2 + y_a9_proc_3 - tau = 0
 c49: y_a9_proc_0 <= 0
 c50: y_a9_proc_1 <= 0
 c51: y_a9_proc_2 <= 0
 c52: y_a9_proc_3 <= 1
 c53: tau <= 0.001050420168
 c54: y_a10_proc_2 + y_a10_proc_3 - tau = 0
 c55: y_a10_proc_2 <= 0
 c56: y_a10_proc_3 <= 1
 c57: tau <= 0.000790513834
 c58: y_a11_proc_0 + y_a11_proc_2 + y_a11_proc_3 - tau = 0
 c59: y_a11_proc_0 <= 0
 c60: y_a11_proc_2 <= 1
 c61: y_a11_proc_3 <= 0
 c62: tau <= 0.001011122346
 c63: y_a12_proc_0 + y_a12_proc_1 + y_a12_proc_2 - tau = 0
 c64: y_a12_proc_0 <= 1
 c65: y_a12_proc_1 <= 0
 c66: y_a12_proc_2 <= 0
 c67: tau <= 0.001574803150
 c68: y_a13_proc_0 + y_a13_proc_1 + y_a13_proc_2 + y_a13_proc_3 - tau = 0
 c69: y_a13_proc_0 <= 0
 c70: y_a13_proc_1 <= 1
 c71: y_a13_proc_2 <= 0
 c72: y_a13_proc_3 <= 0
 c73: tau <= 0.001239157373
 c74: y_a14_proc_0 + y_a14_proc_2 + y_a14_proc_3 - tau = 0
 c75: y_a14_proc_0 <= 0
 c76: y_a14_proc_2 <= 1
 c77: y_a14_proc_3 <= 0
 c78: u_a1 - u_a0 - 875 y_a0_proc_0 - 1011 y_a0_proc_1 - 935 y_a0_proc_2
      - 1043 y_a0_proc_3 >= -2
 c79: u_a2 - u_a0 - 875 y_a0_proc_0 - 1011 y_a0_proc_1 - 935 y_a0_proc_2
      - 1043 y_a0_proc_3 >= -1
 c80: u_a3 - u_a1 - 651 y_a1_proc_1 >= 0
 c81: u_a3 - u_a4 - 1121 y_a4_proc_1 - 691 y_a4_proc_2 - 968 y_a4_proc_3 >= -1
 c82: u_a3 - u_a5 - 811 y_a5_proc_0 - 1232 y_a5_proc_1 - 1030 y_a5_proc_2
      - 1020 y_a5_proc_3 >= 0
 c83: u_a1 - u_a6 - 1235 y_a6_proc_1 - 751 y_a6_proc_2 - 848 y_a6_proc_3 >= -1
 c84: u_a7 - u_a5 - 811 y_a5_proc_0 - 1232 y_a5_proc_1 - 1030 y_a5_proc_2
      - 1020 y_a5_proc_3 >= -1
 c85: u_a5 - u_a8 - 973 y_a8_proc_1 - 1009 y_a8_proc_2 - 1112 y_a8_proc_3 >= 0
 c86: u_a1 - u_a9 - 1072 y_a9_proc_0 - 1115 y_a9_proc_1 - 664 y_a9_proc_2
      - 591 y_a9_proc_3 >= 0
 c87: u_a10 - u_a6 - 1235 y_a6_proc_1 - 751 y_a6_proc_2 - 848 y_a6_proc_3 >= -1
 c88: u_a9 - u_a11 - 642 y_a11_proc_0 - 1265 y_a11_proc_2 - 809 y_a11_proc_3
       >= -1
 c89: u_a5 - u_a12 - 989 y_a12_proc_0 - 1051 y_a12_proc_1 - 1028 y_a12_proc_2
       >= 0
 c90: u_a13 - u_a7 - 826 y_a7_proc_1 - 558 y_a7_proc_2 - 1205 y_a7_proc_3 >= 0
 c91: u_a14 - u_a2 - 983 y_a2_proc_0 - 1144 y_a2_proc_1 - 1224 y_a2_proc_2
      - 913 y_a2_proc_3 >= 0
 c92: u_a6 - u_a14 - 798 y_a14_proc_0 - 807 y_a14_proc_2 - 659 y_a14_proc_3 >= 
      0
 c93: - 1182 y_a10_proc_2 - 952 y_a10_proc_3 >= -1
 c94: u_a9 - u_a14 - 798 y_a14_proc_0 - 807 y_a14_proc_2 - 659 y_a14_proc_3 >= 
      -1
 c95: u_a11 - u_a7 - 826 y_a7_proc_1 - 558 y_a7_proc_2 - 1205 y_a7_proc_3 >= 0
 c96: u_a0 - u_a7 - 826 y_a7_proc_1 - 558 y_a7_proc_2 - 1205 y_a7_proc_3 >= 0
 c97: u_a6 - u_a3 - 782 y_a3_proc_1 - 774 y_a3_proc_2 - 806 y_a3_proc_3 >= 0
 c98: u_a8 - u_a13 - 897 y_a13_proc_0 - 635 y_a13_proc_1 - 904 y_a13_proc_2
      - 707 y_a13_proc_3 >= 0
 c99: u_a4 - u_a10 - 1182 y_a10_proc_2 - 952 y_a10_proc_3 >= 0
 c100: u_a12 - u_a13 - 897 y_a13_proc_0 - 635 y_a13_proc_1 - 904 y_a13_proc_2
       - 707 y_a13_proc_3 >= 0
 c101: u_a12 - u_a11 - 642 y_a11_proc_0 - 1265 y_a11_proc_2 - 809 y_a11_proc_3
        >= 0
 c102: u_a7 - u_a4 - 1121 y_a4_proc_1 - 691 y_a4_proc_2 - 968 y_a4_proc_3 >= -1
 c103: u_a10 - u_a3 - 782 y_a3_proc_1 - 774 y_a3_proc_2 - 806 y_a3_proc_3 >= -1
 c104: u_a4 - u_a14 - 798 y_a14_proc_0 - 807 y_a14_proc_2 - 659 y_a14_proc_3
        >= 0
 c105: u_a11 - u_a3 - 782 y_a3_proc_1 - 774 y_a3_proc_2 - 806 y_a3_proc_3 >= -1
 c106: u_a2 - u_a1 - 651 y_a1_proc_1 >= 0
 c107: - 642 y_a11_proc_0 - 1265 y_a11_proc_2 - 809 y_a11_proc_3 >= -1
 c108: u_a12 - u_a10 - 1182 y_a10_proc_2 - 952 y_a10_proc_3 >= 0
 c109: u_a6 - u_a2 - 983 y_a2_proc_0 - 1144 y_a2_proc_1 - 1224 y_a2_proc_2
       - 913 y_a2_proc_3 >= 0
 c110: u_a1 - u_a0 - 1011 y_a0_proc_1 >= 0
 c111: u_a0 - u_a1 - 651 y_a1_proc_1 >= -2531
 c112: u_a2 - u_a0 - 875 y_a0_proc_0 >= -2530
 c113: u_a2 - u_a0 - 935 y_a0_proc_2 >= -3795
 c114: u_a2 - u_a0 - 1043 y_a0_proc_3 >= -2530
 c115: u_a2 - u_a0 - 1011 y_a0_proc_1 >= -3795
 c116: u_a0 - u_a2 - 983 y_a2_proc_0 >= -1
 c117: u_a0 - u_a2 - 1224 y_a2_proc_2 >= -1266
 c118: u_a0 - u_a2 - 913 y_a2_proc_3 >= -1
 c119: u_a0 - u_a2 - 1144 y_a2_proc_1 >= -1266
 c120: u_a3 - u_a0 - 935 y_a0_proc_2 >= -1618
 c121: u_a3 - u_a0 - 1043 y_a0_proc_3 >= -2883
 c122: u_a3 - u_a0 - 1011 y_a0_proc_1 >= -2883
 c123: u_a0 - u_a3 - 774 y_a3_proc_2 >= -913
 c124: u_a0 - u_a3 - 806 y_a3_proc_3 >= -2178
 c125: u_a0 - u_a3 - 782 y_a3_proc_1 >= -2178
 c126: u_a4 - u_a0 - 935 y_a0_proc_2 >= -3795
 c127: u_a4 - u_a0 - 1043 y_a0_proc_3 >= -2530
 c128: u_a4 - u_a0 - 1011 y_a0_proc_1 >= -3795
 c129: u_a0 - u_a4 - 691 y_a4_proc_2 >= -1266
 c130: u_a0 - u_a4 - 968 y_a4_proc_3 >= -1
 c131: u_a0 - u_a4 - 1121 y_a4_proc_1 >= -1266
 c132: u_a5 - u_a0 - 875 y_a0_proc_0 >= 0
 c133: u_a5 - u_a0 - 935 y_a0_proc_2 >= -2530
 c134: u_a5 - u_a0 - 1043 y_a0_proc_3 >= -2530
 c135: u_a5 - u_a0 - 1011 y_a0_proc_1 >= -2530
 c136: u_a0 - u_a5 - 811 y_a5_proc_0 >= -1
 c137: u_a0 - u_a5 - 1030 y_a5_proc_2 >= -2531
 c138: u_a0 - u_a5 - 1020 y_a5_proc_3 >= -2531
 c139: u_a0 - u_a5 - 1232 y_a5_proc_1 >= -2531
 c140: u_a6 - u_a0 - 935 y_a0_proc_2 >= -2529
 c141: u_a6 - u_a0 - 1043 y_a0_proc_3 >= -3794
 c142: u_a6 - u_a0 - 1011 y_a0_proc_1 >= -3794
 c143: u_a0 - u_a6 - 751 y_a6_proc_2 >= -2
 c144: u_a0 - u_a6 - 848 y_a6_proc_3 >= -1267
 c145: u_a0 - u_a6 - 1235 y_a6_proc_1 >= -1267
 c146: u_a7 - u_a0 - 935 y_a0_proc_2 >= -2531
 c147: u_a7 - u_a0 - 1043 y_a0_proc_3 >= -3796
 c148: u_a7 - u_a0 - 1011 y_a0_proc_1 >= -3796
 c149: u_a0 - u_a7 - 558 y_a7_proc_2 >= 0
 c150: u_a0 - u_a7 - 1205 y_a7_proc_3 >= -1265
 c151: u_a0 - u_a7 - 826 y_a7_proc_1 >= -1265
 c152: u_a8 - u_a0 - 935 y_a0_proc_2 >= -1266
 c153: u_a8 - u_a0 - 1043 y_a0_proc_3 >= -1266
 c154: u_a8 - u_a0 - 1011 y_a0_proc_1 >= -1
 c155: u_a0 - u_a8 - 1009 y_a8_proc_2 >= -3795
 c156: u_a0 - u_a8 - 1112 y_a8_proc_3 >= -3795
 c157: u_a0 - u_a8 - 973 y_a8_proc_1 >= -2530
 c158: u_a9 - u_a0 - 875 y_a0_proc_0 >= -1
 c159: u_a9 - u_a0 - 935 y_a0_proc_2 >= -1266
 c160: u_a9 - u_a0 - 1043 y_a0_proc_3 >= -1
 c161: u_a9 - u_a0 - 1011 y_a0_proc_1 >= -1266
 c162: u_a0 - u_a9 - 1072 y_a9_proc_0 >= -2530
 c163: u_a0 - u_a9 - 664 y_a9_proc_2 >= -3795
 c164: u_a0 - u_a9 - 591 y_a9_proc_3 >= -2530
 c165: u_a0 - u_a9 - 1115 y_a9_proc_1 >= -3795
 c166: u_a10 - u_a0 - 935 y_a0_proc_2 >= -1265
 c167: u_a10 - u_a0 - 1043 y_a0_proc_3 >= 0
 c168: u_a0 - u_a10 - 1182 y_a10_proc_2 >= -3796
 c169: u_a0 - u_a10 - 952 y_a10_proc_3 >= -2531
 c170: u_a11 - u_a0 - 875 y_a0_proc_0 >= -2530
 c171: u_a11 - u_a0 - 935 y_a0_proc_2 >= -2530
 c172: u_a11 - u_a0 - 1043 y_a0_proc_3 >= -3795
 c173: u_a0 - u_a11 - 642 y_a11_proc_0 >= -1
 c174: u_a0 - u_a11 - 1265 y_a11_proc_2 >= -1
 c175: u_a0 - u_a11 - 809 y_a11_proc_3 >= -1266
 c176: u_a12 - u_a0 - 875 y_a0_proc_0 >= 0
 c177: u_a12 - u_a0 - 935 y_a0_proc_2 >= -2530
 c178: u_a12 - u_a0 - 1011 y_a0_proc_1 >= -2530
 c179: u_a0 - u_a12 - 989 y_a12_proc_0 >= -1
 c180: u_a0 - u_a12 - 1028 y_a12_proc_2 >= -2531
 c181: u_a0 - u_a12 - 1051 y_a12_proc_1 >= -2531
 c182: u_a13 - u_a0 - 875 y_a0_proc_0 >= -1139
 c183: u_a13 - u_a0 - 935 y_a0_proc_2 >= -2404
 c184: u_a13 - u_a0 - 1043 y_a0_proc_3 >= -2404
 c185: u_a13 - u_a0 - 1011 y_a0_proc_1 >= -1139
 c186: u_a0 - u_a13 - 897 y_a13_proc_0 >= -1392
 c187: u_a0 - u_a13 - 904 y_a13_proc_2 >= -2657
 c188: u_a0 - u_a13 - 707 y_a13_proc_3 >= -2657
 c189: u_a0 - u_a13 - 635 y_a13_proc_1 >= -1392
 c190: u_a14 - u_a0 - 875 y_a0_proc_0 >= 0
 c191: u_a14 - u_a0 - 935 y_a0_proc_2 >= 0
 c192: u_a14 - u_a0 - 1043 y_a0_proc_3 >= -1265
 c193: u_a0 - u_a14 - 798 y_a14_proc_0 >= -2531
 c194: u_a0 - u_a14 - 807 y_a14_proc_2 >= -2531
 c195: u_a0 - u_a14 - 659 y_a14_proc_3 >= -3796
 c196: u_a2 - u_a1 - 651 y_a1_proc_1 >= -2530
 c197: u_a1 - u_a2 - 1144 y_a2_proc_1 >= -1
 c198: u_a3 - u_a1 - 651 y_a1_proc_1 >= -2530
 c199: u_a1 - u_a3 - 782 y_a3_proc_1 >= -1
 c200: u_a4 - u_a1 - 651 y_a1_proc_1 >= -2530
 c201: u_a1 - u_a4 - 1121 y_a4_proc_1 >= -1
 c202: u_a5 - u_a1 - 651 y_a1_proc_1 >= -1
 c203: u_a1 - u_a5 - 1232 y_a5_proc_1 >= -2530
 c204: u_a6 - u_a1 - 651 y_a1_proc_1 >= -2530
 c205: u_a1 - u_a6 - 1235 y_a6_proc_1 >= -1
 c206: u_a7 - u_a1 - 651 y_a1_proc_1 >= -2531
 c207: u_a1 - u_a7 - 826 y_a7_proc_1 >= 0
 c208: u_a8 - u_a1 - 651 y_a1_proc_1 >= -1
 c209: u_a1 - u_a8 - 973 y_a8_proc_1 >= 0
 c210: u_a9 - u_a1 - 651 y_a1_proc_1 >= -2531
 c211: u_a1 - u_a9 - 1115 y_a9_proc_1 >= 0
 c212: u_a12 - u_a1 - 651 y_a1_proc_1 >= 0
 c213: u_a1 - u_a12 - 1051 y_a12_proc_1 >= -2531
 c214: u_a13 - u_a1 - 651 y_a1_proc_1 >= -1
 c215: u_a1 - u_a13 - 635 y_a13_proc_1 >= 0
 c216: u_a3 - u_a2 - 1224 y_a2_proc_2 >= 0
 c217: u_a3 - u_a2 - 913 y_a2_proc_3 >= 0
 c218: u_a3 - u_a2 - 1144 y_a2_proc_1 >= -1265
 c219: u_a2 - u_a3 - 774 y_a3_proc_2 >= -2531
 c220: u_a2 - u_a3 - 806 y_a3_proc_3 >= -2531
 c221: u_a2 - u_a3 - 782 y_a3_proc_1 >= -3796
 c222: u_a4 - u_a2 - 1224 y_a2_proc_2 >= -2530
 c223: u_a4 - u_a2 - 913 y_a2_proc_3 >= 0
 c224: u_a4 - u_a2 - 1144 y_a2_proc_1 >= -2530
 c225: u_a2 - u_a4 - 691 y_a4_proc_2 >= -2531
 c226: u_a2 - u_a4 - 968 y_a4_proc_3 >= -1
 c227: u_a2 - u_a4 - 1121 y_a4_proc_1 >= -2531
 c228: u_a5 - u_a2 - 983 y_a2_proc_0 >= 0
 c229: u_a5 - u_a2 - 1224 y_a2_proc_2 >= -1265
 c230: u_a5 - u_a2 - 913 y_a2_proc_3 >= 0
 c231: u_a5 - u_a2 - 1144 y_a2_proc_1 >= -1265
 c232: u_a2 - u_a5 - 811 y_a5_proc_0 >= -2531
 c233: u_a2 - u_a5 - 1030 y_a5_proc_2 >= -3796
 c234: u_a2 - u_a5 - 1020 y_a5_proc_3 >= -2531
 c235: u_a2 - u_a5 - 1232 y_a5_proc_1 >= -3796
 c236: u_a6 - u_a2 - 1224 y_a2_proc_2 >= -2530
 c237: u_a6 - u_a2 - 913 y_a2_proc_3 >= -2530
 c238: u_a6 - u_a2 - 1144 y_a2_proc_1 >= -3795
 c239: u_a2 - u_a6 - 751 y_a6_proc_2 >= -1
 c240: u_a2 - u_a6 - 848 y_a6_proc_3 >= -1
 c241: u_a2 - u_a6 - 1235 y_a6_proc_1 >= -1266
 c242: u_a7 - u_a2 - 1224 y_a2_proc_2 >= -1
 c243: u_a7 - u_a2 - 913 y_a2_proc_3 >= -1
 c244: u_a7 - u_a2 - 1144 y_a2_proc_1 >= -1266
 c245: u_a2 - u_a7 - 558 y_a7_proc_2 >= -2530
 c246: u_a2 - u_a7 - 1205 y_a7_proc_3 >= -2530
 c247: u_a2 - u_a7 - 826 y_a7_proc_1 >= -3795
 c248: u_a8 - u_a2 - 1224 y_a2_proc_2 >= -3796
 c249: u_a8 - u_a2 - 913 y_a2_proc_3 >= -2531
 c250: u_a8 - u_a2 - 1144 y_a2_proc_1 >= -2531
 c251: u_a2 - u_a8 - 1009 y_a8_proc_2 >= -1265
 c252: u_a2 - u_a8 - 1112 y_a8_proc_3 >= 0
 c253: u_a2 - u_a8 - 973 y_a8_proc_1 >= 0
 c254: u_a9 - u_a2 - 983 y_a2_proc_0 >= -2531
 c255: u_a9 - u_a2 - 1224 y_a2_proc_2 >= -2531
 c256: u_a9 - u_a2 - 913 y_a2_proc_3 >= -1
 c257: u_a9 - u_a2 - 1144 y_a2_proc_1 >= -2531
 c258: u_a2 - u_a9 - 1072 y_a9_proc_0 >= -2530
 c259: u_a2 - u_a9 - 664 y_a9_proc_2 >= -2530
 c260: u_a2 - u_a9 - 591 y_a9_proc_3 >= 0
 c261: u_a2 - u_a9 - 1115 y_a9_proc_1 >= -2530
 c262: u_a10 - u_a2 - 1224 y_a2_proc_2 >= -2531
 c263: u_a10 - u_a2 - 913 y_a2_proc_3 >= -1
 c264: u_a2 - u_a10 - 1182 y_a10_proc_2 >= -2530
 c265: u_a2 - u_a10 - 952 y_a10_proc_3 >= 0
 c266: u_a11 - u_a2 - 983 y_a2_proc_0 >= -3795
 c267: u_a11 - u_a2 - 1224 y_a2_proc_2 >= -2530
 c268: u_a11 - u_a2 - 913 y_a2_proc_3 >= -2530
 c269: u_a2 - u_a11 - 642 y_a11_proc_0 >= -1266
 c270: u_a2 - u_a11 - 1265 y_a11_proc_2 >= -1
 c271: u_a2 - u_a11 - 809 y_a11_proc_3 >= -1
 c272: u_a12 - u_a2 - 983 y_a2_proc_0 >= 0
 c273: u_a12 - u_a2 - 1224 y_a2_proc_2 >= -1265
 c274: u_a12 - u_a2 - 1144 y_a2_proc_1 >= -1265
 c275: u_a2 - u_a12 - 989 y_a12_proc_0 >= -2531
 c276: u_a2 - u_a12 - 1028 y_a12_proc_2 >= -3796
 c277: u_a2 - u_a12 - 1051 y_a12_proc_1 >= -3796
 c278: u_a13 - u_a2 - 983 y_a2_proc_0 >= -1266
 c279: u_a13 - u_a2 - 1224 y_a2_proc_2 >= -1266
 c280: u_a13 - u_a2 - 913 y_a2_proc_3 >= -1
 c281: u_a13 - u_a2 - 1144 y_a2_proc_1 >= -1
 c282: u_a2 - u_a13 - 897 y_a13_proc_0 >= -3795
 c283: u_a2 - u_a13 - 904 y_a13_proc_2 >= -3795
 c284: u_a2 - u_a13 - 707 y_a13_proc_3 >= -2530
 c285: u_a2 - u_a13 - 635 y_a13_proc_1 >= -2530
 c286: u_a14 - u_a2 - 983 y_a2_proc_0 >= -3795
 c287: u_a14 - u_a2 - 1224 y_a2_proc_2 >= -2530
 c288: u_a14 - u_a2 - 913 y_a2_proc_3 >= -2530
 c289: u_a2 - u_a14 - 798 y_a14_proc_0 >= -1266
 c290: u_a2 - u_a14 - 807 y_a14_proc_2 >= -1
 c291: u_a2 - u_a14 - 659 y_a14_proc_3 >= -1
 c292: u_a4 - u_a3 - 774 y_a3_proc_2 >= -2531
 c293: u_a4 - u_a3 - 806 y_a3_proc_3 >= -2531
 c294: u_a4 - u_a3 - 782 y_a3_proc_1 >= -3796
 c295: u_a3 - u_a4 - 691 y_a4_proc_2 >= 0
 c296: u_a3 - u_a4 - 968 y_a4_proc_3 >= 0
 c297: u_a3 - u_a4 - 1121 y_a4_proc_1 >= -1265
 c298: u_a5 - u_a3 - 774 y_a3_proc_2 >= -2531
 c299: u_a5 - u_a3 - 806 y_a3_proc_3 >= -3796
 c300: u_a5 - u_a3 - 782 y_a3_proc_1 >= -3796
 c301: u_a3 - u_a5 - 1030 y_a5_proc_2 >= 0
 c302: u_a3 - u_a5 - 1020 y_a5_proc_3 >= -1265
 c303: u_a3 - u_a5 - 1232 y_a5_proc_1 >= -1265
 c304: u_a6 - u_a3 - 774 y_a3_proc_2 >= 0
 c305: u_a6 - u_a3 - 806 y_a3_proc_3 >= -2530
 c306: u_a6 - u_a3 - 782 y_a3_proc_1 >= -2530
 c307: u_a3 - u_a6 - 751 y_a6_proc_2 >= -1
 c308: u_a3 - u_a6 - 848 y_a6_proc_3 >= -2531
 c309: u_a3 - u_a6 - 1235 y_a6_proc_1 >= -2531
 c310: u_a7 - u_a3 - 774 y_a3_proc_2 >= -2
 c311: u_a7 - u_a3 - 806 y_a3_proc_3 >= -2532
 c312: u_a7 - u_a3 - 782 y_a3_proc_1 >= -2532
 c313: u_a3 - u_a7 - 558 y_a7_proc_2 >= 1
 c314: u_a3 - u_a7 - 1205 y_a7_proc_3 >= -2529
 c315: u_a3 - u_a7 - 826 y_a7_proc_1 >= -2529
 c316: u_a8 - u_a3 - 774 y_a3_proc_2 >= -1
 c317: u_a8 - u_a3 - 806 y_a3_proc_3 >= -1266
 c318: u_a8 - u_a3 - 782 y_a3_proc_1 >= -1
 c319: u_a3 - u_a8 - 1009 y_a8_proc_2 >= -2530
 c320: u_a3 - u_a8 - 1112 y_a8_proc_3 >= -3795
 c321: u_a3 - u_a8 - 973 y_a8_proc_1 >= -2530
 c322: u_a9 - u_a3 - 774 y_a3_proc_2 >= -2532
 c323: u_a9 - u_a3 - 806 y_a3_proc_3 >= -2532
 c324: u_a9 - u_a3 - 782 y_a3_proc_1 >= -3797
 c325: u_a3 - u_a9 - 664 y_a9_proc_2 >= 1
 c326: u_a3 - u_a9 - 591 y_a9_proc_3 >= 1
 c327: u_a3 - u_a9 - 1115 y_a9_proc_1 >= -1264
 c328: u_a10 - u_a3 - 774 y_a3_proc_2 >= -2531
 c329: u_a10 - u_a3 - 806 y_a3_proc_3 >= -2531
 c330: u_a3 - u_a10 - 1182 y_a10_proc_2 >= 0
 c331: u_a3 - u_a10 - 952 y_a10_proc_3 >= 0
 c332: u_a11 - u_a3 - 774 y_a3_proc_2 >= -1
 c333: u_a11 - u_a3 - 806 y_a3_proc_3 >= -2531
 c334: u_a3 - u_a11 - 1265 y_a11_proc_2 >= 0
 c335: u_a3 - u_a11 - 809 y_a11_proc_3 >= -2530
 c336: u_a12 - u_a3 - 774 y_a3_proc_2 >= -2531
 c337: u_a12 - u_a3 - 782 y_a3_proc_1 >= -3796
 c338: u_a3 - u_a12 - 1028 y_a12_proc_2 >= 0
 c339: u_a3 - u_a12 - 1051 y_a12_proc_1 >= -1265
 c340: u_a13 - u_a3 - 774 y_a3_proc_2 >= -2
 c341: u_a13 - u_a3 - 806 y_a3_proc_3 >= -1267
 c342: u_a13 - u_a3 - 782 y_a3_proc_1 >= -2
 c343: u_a3 - u_a13 - 904 y_a13_proc_2 >= -2529
 c344: u_a3 - u_a13 - 707 y_a13_proc_3 >= -3794
 c345: u_a3 - u_a13 - 635 y_a13_proc_1 >= -2529
 c346: u_a14 - u_a3 - 774 y_a3_proc_2 >= -1
 c347: u_a14 - u_a3 - 806 y_a3_proc_3 >= -2531
 c348: u_a3 - u_a14 - 807 y_a14_proc_2 >= 0
 c349: u_a3 - u_a14 - 659 y_a14_proc_3 >= -2530
 c350: u_a5 - u_a4 - 691 y_a4_proc_2 >= -1266
 c351: u_a5 - u_a4 - 968 y_a4_proc_3 >= -1
 c352: u_a5 - u_a4 - 1121 y_a4_proc_1 >= -1266
 c353: u_a4 - u_a5 - 1030 y_a5_proc_2 >= -3795
 c354: u_a4 - u_a5 - 1020 y_a5_proc_3 >= -2530
 c355: u_a4 - u_a5 - 1232 y_a5_proc_1 >= -3795
 c356: u_a6 - u_a4 - 691 y_a4_proc_2 >= 0
 c357: u_a6 - u_a4 - 968 y_a4_proc_3 >= 0
 c358: u_a6 - u_a4 - 1121 y_a4_proc_1 >= -1265
 c359: u_a4 - u_a6 - 751 y_a6_proc_2 >= -2531
 c360: u_a4 - u_a6 - 848 y_a6_proc_3 >= -2531
 c361: u_a4 - u_a6 - 1235 y_a6_proc_1 >= -3796
 c362: u_a7 - u_a4 - 691 y_a4_proc_2 >= -2531
 c363: u_a7 - u_a4 - 968 y_a4_proc_3 >= -2531
 c364: u_a7 - u_a4 - 1121 y_a4_proc_1 >= -3796
 c365: u_a4 - u_a7 - 558 y_a7_proc_2 >= 0
 c366: u_a4 - u_a7 - 1205 y_a7_proc_3 >= 0
 c367: u_a4 - u_a7 - 826 y_a7_proc_1 >= -1265
 c368: u_a8 - u_a4 - 691 y_a4_proc_2 >= -3796
 c369: u_a8 - u_a4 - 968 y_a4_proc_3 >= -2531
 c370: u_a8 - u_a4 - 1121 y_a4_proc_1 >= -2531
 c371: u_a4 - u_a8 - 1009 y_a8_proc_2 >= -1265
 c372: u_a4 - u_a8 - 1112 y_a8_proc_3 >= 0
 c373: u_a4 - u_a8 - 973 y_a8_proc_1 >= 0
 c374: u_a9 - u_a4 - 691 y_a4_proc_2 >= -2531
 c375: u_a9 - u_a4 - 968 y_a4_proc_3 >= -1
 c376: u_a9 - u_a4 - 1121 y_a4_proc_1 >= -2531
 c377: u_a4 - u_a9 - 664 y_a9_proc_2 >= -2530
 c378: u_a4 - u_a9 - 591 y_a9_proc_3 >= 0
 c379: u_a4 - u_a9 - 1115 y_a9_proc_1 >= -2530
 c380: u_a10 - u_a4 - 691 y_a4_proc_2 >= -2531
 c381: u_a10 - u_a4 - 968 y_a4_proc_3 >= -1
 c382: u_a4 - u_a10 - 1182 y_a10_proc_2 >= -2530
 c383: u_a4 - u_a10 - 952 y_a10_proc_3 >= 0
 c384: u_a11 - u_a4 - 691 y_a4_proc_2 >= -2531
 c385: u_a11 - u_a4 - 968 y_a4_proc_3 >= -2531
 c386: u_a4 - u_a11 - 1265 y_a11_proc_2 >= 0
 c387: u_a4 - u_a11 - 809 y_a11_proc_3 >= 0
 c388: u_a12 - u_a4 - 691 y_a4_proc_2 >= -5061
 c389: u_a12 - u_a4 - 1121 y_a4_proc_1 >= -5061
 c390: u_a4 - u_a12 - 1028 y_a12_proc_2 >= 0
 c391: u_a4 - u_a12 - 1051 y_a12_proc_1 >= 0
 c392: u_a13 - u_a4 - 691 y_a4_proc_2 >= -3796
 c393: u_a13 - u_a4 - 968 y_a4_proc_3 >= -2531
 c394: u_a13 - u_a4 - 1121 y_a4_proc_1 >= -2531
 c395: u_a4 - u_a13 - 904 y_a13_proc_2 >= -1265
 c396: u_a4 - u_a13 - 707 y_a13_proc_3 >= 0
 c397: u_a4 - u_a13 - 635 y_a13_proc_1 >= 0
 c398: u_a14 - u_a4 - 691 y_a4_proc_2 >= -1
 c399: u_a14 - u_a4 - 968 y_a4_proc_3 >= -1
 c400: u_a4 - u_a14 - 807 y_a14_proc_2 >= -2530
 c401: u_a4 - u_a14 - 659 y_a14_proc_3 >= -2530
 c402: u_a6 - u_a5 - 1030 y_a5_proc_2 >= -2530
 c403: u_a6 - u_a5 - 1020 y_a5_proc_3 >= -3795
 c404: u_a6 - u_a5 - 1232 y_a5_proc_1 >= -3795
 c405: u_a5 - u_a6 - 751 y_a6_proc_2 >= -1
 c406: u_a5 - u_a6 - 848 y_a6_proc_3 >= -1266
 c407: u_a5 - u_a6 - 1235 y_a6_proc_1 >= -1266
 c408: u_a7 - u_a5 - 1030 y_a5_proc_2 >= -2531
 c409: u_a7 - u_a5 - 1020 y_a5_proc_3 >= -3796
 c410: u_a7 - u_a5 - 1232 y_a5_proc_1 >= -3796
 c411: u_a5 - u_a7 - 558 y_a7_proc_2 >= 0
 c412: u_a5 - u_a7 - 1205 y_a7_proc_3 >= -1265
 c413: u_a5 - u_a7 - 826 y_a7_proc_1 >= -1265
 c414: u_a8 - u_a5 - 1030 y_a5_proc_2 >= -3796
 c415: u_a8 - u_a5 - 1020 y_a5_proc_3 >= -3796
 c416: u_a8 - u_a5 - 1232 y_a5_proc_1 >= -2531
 c417: u_a5 - u_a8 - 1009 y_a8_proc_2 >= -1265
 c418: u_a5 - u_a8 - 1112 y_a8_proc_3 >= -1265
 c419: u_a5 - u_a8 - 973 y_a8_proc_1 >= 0
 c420: u_a9 - u_a5 - 811 y_a5_proc_0 >= -2530
 c421: u_a9 - u_a5 - 1030 y_a5_proc_2 >= -3795
 c422: u_a9 - u_a5 - 1020 y_a5_proc_3 >= -2530
 c423: u_a9 - u_a5 - 1232 y_a5_proc_1 >= -3795
 c424: u_a5 - u_a9 - 1072 y_a9_proc_0 >= -1
 c425: u_a5 - u_a9 - 664 y_a9_proc_2 >= -1266
 c426: u_a5 - u_a9 - 591 y_a9_proc_3 >= -1
 c427: u_a5 - u_a9 - 1115 y_a9_proc_1 >= -1266
 c428: u_a10 - u_a5 - 1030 y_a5_proc_2 >= -3796
 c429: u_a10 - u_a5 - 1020 y_a5_proc_3 >= -2531
 c430: u_a5 - u_a10 - 1182 y_a10_proc_2 >= -1265
 c431: u_a5 - u_a10 - 952 y_a10_proc_3 >= 0
 c432: u_a11 - u_a5 - 811 y_a5_proc_0 >= -2531
 c433: u_a11 - u_a5 - 1030 y_a5_proc_2 >= -2531
 c434: u_a11 - u_a5 - 1020 y_a5_proc_3 >= -3796
 c435: u_a5 - u_a11 - 642 y_a11_proc_0 >= 0
 c436: u_a5 - u_a11 - 1265 y_a11_proc_2 >= 0
 c437: u_a5 - u_a11 - 809 y_a11_proc_3 >= -1265
 c438: u_a12 - u_a5 - 811 y_a5_proc_0 >= -1
 c439: u_a12 - u_a5 - 1030 y_a5_proc_2 >= -2531
 c440: u_a12 - u_a5 - 1232 y_a5_proc_1 >= -2531
 c441: u_a5 - u_a12 - 989 y_a12_proc_0 >= 0
 c442: u_a5 - u_a12 - 1028 y_a12_proc_2 >= -2530
 c443: u_a5 - u_a12 - 1051 y_a12_proc_1 >= -2530
 c444: u_a13 - u_a5 - 811 y_a5_proc_0 >= -2531
 c445: u_a13 - u_a5 - 1030 y_a5_proc_2 >= -3796
 c446: u_a13 - u_a5 - 1020 y_a5_proc_3 >= -3796
 c447: u_a13 - u_a5 - 1232 y_a5_proc_1 >= -2531
 c448: u_a5 - u_a13 - 897 y_a13_proc_0 >= 0
 c449: u_a5 - u_a13 - 904 y_a13_proc_2 >= -1265
 c450: u_a5 - u_a13 - 707 y_a13_proc_3 >= -1265
 c451: u_a5 - u_a13 - 635 y_a13_proc_1 >= 0
 c452: u_a14 - u_a5 - 811 y_a5_proc_0 >= -1
 c453: u_a14 - u_a5 - 1030 y_a5_proc_2 >= -1
 c454: u_a14 - u_a5 - 1020 y_a5_proc_3 >= -1266
 c455: u_a5 - u_a14 - 798 y_a14_proc_0 >= -2530
 c456: u_a5 - u_a14 - 807 y_a14_proc_2 >= -2530
 c457: u_a5 - u_a14 - 659 y_a14_proc_3 >= -3795
 c458: u_a7 - u_a6 - 751 y_a6_proc_2 >= -2
 c459: u_a7 - u_a6 - 848 y_a6_proc_3 >= -2532
 c460: u_a7 - u_a6 - 1235 y_a6_proc_1 >= -2532
 c461: u_a6 - u_a7 - 558 y_a7_proc_2 >= 1
 c462: u_a6 - u_a7 - 1205 y_a7_proc_3 >= -2529
 c463: u_a6 - u_a7 - 826 y_a7_proc_1 >= -2529
 c464: u_a8 - u_a6 - 751 y_a6_proc_2 >= -2
 c465: u_a8 - u_a6 - 848 y_a6_proc_3 >= -1267
 c466: u_a8 - u_a6 - 1235 y_a6_proc_1 >= -2
 c467: u_a6 - u_a8 - 1009 y_a8_proc_2 >= -2529
 c468: u_a6 - u_a8 - 1112 y_a8_proc_3 >= -3794
 c469: u_a6 - u_a8 - 973 y_a8_proc_1 >= -2529
 c470: u_a9 - u_a6 - 751 y_a6_proc_2 >= -2532
 c471: u_a9 - u_a6 - 848 y_a6_proc_3 >= -2532
 c472: u_a9 - u_a6 - 1235 y_a6_proc_1 >= -3797
 c473: u_a6 - u_a9 - 664 y_a9_proc_2 >= 1
 c474: u_a6 - u_a9 - 591 y_a9_proc_3 >= 1
 c475: u_a6 - u_a9 - 1115 y_a9_proc_1 >= -1264
 c476: u_a10 - u_a6 - 751 y_a6_proc_2 >= -2531
 c477: u_a10 - u_a6 - 848 y_a6_proc_3 >= -2531
 c478: u_a6 - u_a10 - 1182 y_a10_proc_2 >= 0
 c479: u_a6 - u_a10 - 952 y_a10_proc_3 >= 0
 c480: u_a11 - u_a6 - 751 y_a6_proc_2 >= -1
 c481: u_a11 - u_a6 - 848 y_a6_proc_3 >= -2531
 c482: u_a6 - u_a11 - 1265 y_a11_proc_2 >= 0
 c483: u_a6 - u_a11 - 809 y_a11_proc_3 >= -2530
 c484: u_a12 - u_a6 - 751 y_a6_proc_2 >= -2531
 c485: u_a12 - u_a6 - 1235 y_a6_proc_1 >= -3796
 c486: u_a6 - u_a12 - 1028 y_a12_proc_2 >= 0
 c487: u_a6 - u_a12 - 1051 y_a12_proc_1 >= -1265
 c488: u_a13 - u_a6 - 751 y_a6_proc_2 >= -2
 c489: u_a13 - u_a6 - 848 y_a6_proc_3 >= -1267
 c490: u_a13 - u_a6 - 1235 y_a6_proc_1 >= -2
 c491: u_a6 - u_a13 - 904 y_a13_proc_2 >= -2529
 c492: u_a6 - u_a13 - 707 y_a13_proc_3 >= -3794
 c493: u_a6 - u_a13 - 635 y_a13_proc_1 >= -2529
 c494: u_a14 - u_a6 - 751 y_a6_proc_2 >= -1
 c495: u_a14 - u_a6 - 848 y_a6_proc_3 >= -2531
 c496: u_a6 - u_a14 - 807 y_a14_proc_2 >= 0
 c497: u_a6 - u_a14 - 659 y_a14_proc_3 >= -2530
 c498: u_a8 - u_a7 - 558 y_a7_proc_2 >= -2530
 c499: u_a8 - u_a7 - 1205 y_a7_proc_3 >= -3795
 c500: u_a8 - u_a7 - 826 y_a7_proc_1 >= -2530
 c501: u_a7 - u_a8 - 1009 y_a8_proc_2 >= -1
 c502: u_a7 - u_a8 - 1112 y_a8_proc_3 >= -1266
 c503: u_a7 - u_a8 - 973 y_a8_proc_1 >= -1
 c504: u_a9 - u_a7 - 558 y_a7_proc_2 >= -1
 c505: u_a9 - u_a7 - 1205 y_a7_proc_3 >= -1
 c506: u_a9 - u_a7 - 826 y_a7_proc_1 >= -1266
 c507: u_a7 - u_a9 - 664 y_a9_proc_2 >= -2530
 c508: u_a7 - u_a9 - 591 y_a9_proc_3 >= -2530
 c509: u_a7 - u_a9 - 1115 y_a9_proc_1 >= -3795
 c510: u_a10 - u_a7 - 558 y_a7_proc_2 >= 0
 c511: u_a10 - u_a7 - 1205 y_a7_proc_3 >= 0
 c512: u_a7 - u_a10 - 1182 y_a10_proc_2 >= -2531
 c513: u_a7 - u_a10 - 952 y_a10_proc_3 >= -2531
 c514: u_a11 - u_a7 - 558 y_a7_proc_2 >= 0
 c515: u_a11 - u_a7 - 1205 y_a7_proc_3 >= -2530
 c516: u_a7 - u_a11 - 1265 y_a11_proc_2 >= -1
 c517: u_a7 - u_a11 - 809 y_a11_proc_3 >= -2531
 c518: u_a12 - u_a7 - 558 y_a7_proc_2 >= -2530
 c519: u_a12 - u_a7 - 826 y_a7_proc_1 >= -3795
 c520: u_a7 - u_a12 - 1028 y_a12_proc_2 >= -1
 c521: u_a7 - u_a12 - 1051 y_a12_proc_1 >= -1266
 c522: u_a13 - u_a7 - 558 y_a7_proc_2 >= -2530
 c523: u_a13 - u_a7 - 1205 y_a7_proc_3 >= -3795
 c524: u_a13 - u_a7 - 826 y_a7_proc_1 >= -2530
 c525: u_a7 - u_a13 - 904 y_a13_proc_2 >= -1
 c526: u_a7 - u_a13 - 707 y_a13_proc_3 >= -1266
 c527: u_a7 - u_a13 - 635 y_a13_proc_1 >= -1
 c528: u_a14 - u_a7 - 558 y_a7_proc_2 >= 0
 c529: u_a14 - u_a7 - 1205 y_a7_proc_3 >= -2530
 c530: u_a7 - u_a14 - 807 y_a14_proc_2 >= -1
 c531: u_a7 - u_a14 - 659 y_a14_proc_3 >= -2531
 c532: u_a9 - u_a8 - 1009 y_a8_proc_2 >= -1266
 c533: u_a9 - u_a8 - 1112 y_a8_proc_3 >= -1
 c534: u_a9 - u_a8 - 973 y_a8_proc_1 >= -1
 c535: u_a8 - u_a9 - 664 y_a9_proc_2 >= -3795
 c536: u_a8 - u_a9 - 591 y_a9_proc_3 >= -2530
 c537: u_a8 - u_a9 - 1115 y_a9_proc_1 >= -2530
 c538: u_a10 - u_a8 - 1009 y_a8_proc_2 >= -2621
 c539: u_a10 - u_a8 - 1112 y_a8_proc_3 >= -1356
 c540: u_a8 - u_a10 - 1182 y_a10_proc_2 >= -2440
 c541: u_a8 - u_a10 - 952 y_a10_proc_3 >= -1175
 c542: u_a11 - u_a8 - 1009 y_a8_proc_2 >= -2530
 c543: u_a11 - u_a8 - 1112 y_a8_proc_3 >= -3795
 c544: u_a8 - u_a11 - 1265 y_a11_proc_2 >= -1
 c545: u_a8 - u_a11 - 809 y_a11_proc_3 >= -1266
 c546: u_a12 - u_a8 - 1009 y_a8_proc_2 >= -2452
 c547: u_a12 - u_a8 - 973 y_a8_proc_1 >= -1187
 c548: u_a8 - u_a12 - 1028 y_a12_proc_2 >= -2609
 c549: u_a8 - u_a12 - 1051 y_a12_proc_1 >= -1344
 c550: u_a13 - u_a8 - 1009 y_a8_proc_2 >= -2531
 c551: u_a13 - u_a8 - 1112 y_a8_proc_3 >= -2531
 c552: u_a13 - u_a8 - 973 y_a8_proc_1 >= -1
 c553: u_a8 - u_a13 - 904 y_a13_proc_2 >= -2530
 c554: u_a8 - u_a13 - 707 y_a13_proc_3 >= -2530
 c555: u_a8 - u_a13 - 635 y_a13_proc_1 >= 0
 c556: u_a14 - u_a8 - 1009 y_a8_proc_2 >= -2530
 c557: u_a14 - u_a8 - 1112 y_a8_proc_3 >= -3795
 c558: u_a8 - u_a14 - 807 y_a14_proc_2 >= -1
 c559: u_a8 - u_a14 - 659 y_a14_proc_3 >= -1266
 c560: u_a10 - u_a9 - 664 y_a9_proc_2 >= -2530
 c561: u_a10 - u_a9 - 591 y_a9_proc_3 >= 0
 c562: u_a9 - u_a10 - 1182 y_a10_proc_2 >= -2531
 c563: u_a9 - u_a10 - 952 y_a10_proc_3 >= -1
 c564: u_a11 - u_a9 - 1072 y_a9_proc_0 >= -3795
 c565: u_a11 - u_a9 - 664 y_a9_proc_2 >= -2530
 c566: u_a11 - u_a9 - 591 y_a9_proc_3 >= -2530
 c567: u_a9 - u_a11 - 642 y_a11_proc_0 >= -1266
 c568: u_a9 - u_a11 - 1265 y_a11_proc_2 >= -1
 c569: u_a9 - u_a11 - 809 y_a11_proc_3 >= -1
 c570: u_a12 - u_a9 - 1072 y_a9_proc_0 >= -1474
 c571: u_a12 - u_a9 - 664 y_a9_proc_2 >= -2739
 c572: u_a12 - u_a9 - 1115 y_a9_proc_1 >= -2739
 c573: u_a9 - u_a12 - 989 y_a12_proc_0 >= -1057
 c574: u_a9 - u_a12 - 1028 y_a12_proc_2 >= -2322
 c575: u_a9 - u_a12 - 1051 y_a12_proc_1 >= -2322
 c576: u_a13 - u_a9 - 1072 y_a9_proc_0 >= -3795
 c577: u_a13 - u_a9 - 664 y_a9_proc_2 >= -3795
 c578: u_a13 - u_a9 - 591 y_a9_proc_3 >= -2530
 c579: u_a13 - u_a9 - 1115 y_a9_proc_1 >= -2530
 c580: u_a9 - u_a13 - 897 y_a13_proc_0 >= -1266
 c581: u_a9 - u_a13 - 904 y_a13_proc_2 >= -1266
 c582: u_a9 - u_a13 - 707 y_a13_proc_3 >= -1
 c583: u_a9 - u_a13 - 635 y_a13_proc_1 >= -1
 c584: u_a14 - u_a9 - 1072 y_a9_proc_0 >= -3795
 c585: u_a14 - u_a9 - 664 y_a9_proc_2 >= -2530
 c586: u_a14 - u_a9 - 591 y_a9_proc_3 >= -2530
 c587: u_a9 - u_a14 - 798 y_a14_proc_0 >= -1266
 c588: u_a9 - u_a14 - 807 y_a14_proc_2 >= -1
 c589: u_a9 - u_a14 - 659 y_a14_proc_3 >= -1
 c590: u_a11 - u_a10 - 1182 y_a10_proc_2 >= -2530
 c591: u_a11 - u_a10 - 952 y_a10_proc_3 >= -2530
 c592: u_a10 - u_a11 - 1265 y_a11_proc_2 >= -1
 c593: u_a10 - u_a11 - 809 y_a11_proc_3 >= -1
 c594: u_a12 - u_a10 - 1182 y_a10_proc_2 >= -5060
 c595: u_a10 - u_a12 - 1028 y_a12_proc_2 >= -1
 c596: u_a13 - u_a10 - 1182 y_a10_proc_2 >= -3796
 c597: u_a13 - u_a10 - 952 y_a10_proc_3 >= -2531
 c598: u_a10 - u_a13 - 904 y_a13_proc_2 >= -1265
 c599: u_a10 - u_a13 - 707 y_a13_proc_3 >= 0
 c600: u_a14 - u_a10 - 1182 y_a10_proc_2 >= -53
 c601: u_a14 - u_a10 - 952 y_a10_proc_3 >= -53
 c602: u_a10 - u_a14 - 807 y_a14_proc_2 >= -2478
 c603: u_a10 - u_a14 - 659 y_a14_proc_3 >= -2478
 c604: u_a12 - u_a11 - 642 y_a11_proc_0 >= -2530
 c605: u_a12 - u_a11 - 1265 y_a11_proc_2 >= -2530
 c606: u_a11 - u_a12 - 989 y_a12_proc_0 >= -1
 c607: u_a11 - u_a12 - 1028 y_a12_proc_2 >= -1
 c608: u_a13 - u_a11 - 642 y_a11_proc_0 >= -3796
 c609: u_a13 - u_a11 - 1265 y_a11_proc_2 >= -2531
 c610: u_a13 - u_a11 - 809 y_a11_proc_3 >= -3796
 c611: u_a11 - u_a13 - 897 y_a13_proc_0 >= -1265
 c612: u_a11 - u_a13 - 904 y_a13_proc_2 >= 0
 c613: u_a11 - u_a13 - 707 y_a13_proc_3 >= -1265
 c614: u_a14 - u_a11 - 642 y_a11_proc_0 >= -2530
 c615: u_a14 - u_a11 - 1265 y_a11_proc_2 >= 0
 c616: u_a14 - u_a11 - 809 y_a11_proc_3 >= -2530
 c617: u_a11 - u_a14 - 798 y_a14_proc_0 >= -2531
 c618: u_a11 - u_a14 - 807 y_a14_proc_2 >= -1
 c619: u_a11 - u_a14 - 659 y_a14_proc_3 >= -2531
 c620: u_a13 - u_a12 - 989 y_a12_proc_0 >= -2531
 c621: u_a13 - u_a12 - 1028 y_a12_proc_2 >= -3796
 c622: u_a13 - u_a12 - 1051 y_a12_proc_1 >= -2531
 c623: u_a12 - u_a13 - 897 y_a13_proc_0 >= 0
 c624: u_a12 - u_a13 - 904 y_a13_proc_2 >= -1265
 c625: u_a12 - u_a13 - 635 y_a13_proc_1 >= 0
 c626: u_a14 - u_a12 - 989 y_a12_proc_0 >= -2530
 c627: u_a14 - u_a12 - 1028 y_a12_proc_2 >= -2530
 c628: u_a12 - u_a14 - 798 y_a14_proc_0 >= -1
 c629: u_a12 - u_a14 - 807 y_a14_proc_2 >= -1
 c630: u_a14 - u_a13 - 897 y_a13_proc_0 >= -1265
 c631: u_a14 - u_a13 - 904 y_a13_proc_2 >= 0
 c632: u_a14 - u_a13 - 707 y_a13_proc_3 >= -1265
 c633: u_a13 - u_a14 - 798 y_a14_proc_0 >= -3796
 c634: u_a13 - u_a14 - 807 y_a14_proc_2 >= -2531
 c635: u_a13 - u_a14 - 659 y_a14_proc_3 >= -3796

Bounds
End
